; benchmark generated from python API
(set-info :status unknown)
(declare-fun S_3 () Real)
(declare-fun S_1 () Real)
(declare-fun S_4 () Real)
(declare-fun A_3 () Real)
(declare-fun L_2 () Real)
(declare-fun S_0 () Real)
(declare-fun A_0 () Real)
(declare-fun L_0 () Real)
(declare-fun A_1 () Real)
(declare-fun L0 () Real)
(declare-fun L_3 () Real)
(declare-fun S_2 () Real)
(declare-fun A_2 () Real)
(declare-fun L_1 () Real)
(declare-fun A_4 () Real)
(assert
 (let (($x1060 (<= (+ L_0 (* (- 1.0) A_0) (* 2.0 S_1) (* (- 1.0) S_3)) 0.0)))
 (let (($x369 (<= (+ S_1 (* (- 1.0) S_3)) (- 5.0))))
 (let (($x1759 (<= (+ (* (- 1.0) A_1) L_0 S_1) 0.0)))
 (let (($x37 (>= L0 0.0)))
 (let (($x1727 (<= (+ L_0 S_0 (* (- 1.0) A_0)) 0.0)))
 (let (($x2057 (>= S_4 (+ A_3 (* (- 1.0) L_2)))))
 (let (($x25898 (or $x2057 (<= (+ (* (- (/ 1.0 3.0)) S_4) (* (/ 1.0 3.0) S_0)) (- 5.0)) (<= (+ (* (- (/ 1.0 2.0)) L_0) (* (- (/ 1.0 2.0)) S_4) (* (/ 1.0 2.0) A_1)) (- 5.0)))))
 (let ((?x8342 (* (/ 1.0 2.0) A_1)))
 (let ((?x2395 (* (- (/ 3.0 2.0)) A_3)))
 (let ((?x1642 (* (- (/ 1.0 2.0)) L_0)))
 (let ((?x9479 (* (/ 3.0 2.0) L_3)))
 (let (($x13124 (<= (+ L_3 (* (- 1.0) A_3) (* (/ 3.0 4.0) S_4) (* (/ 1.0 4.0) S_0)) (- 5.0))))
 (let (($x74 (= L_3 L_2)))
 (let (($x26321 (or $x74 (<= (+ L_3 (* (- 1.0) A_3) S_0) (- 20.0)) (<= (+ (* (/ 1.0 2.0) L_3) ?x1642 (* (- (/ 1.0 2.0)) A_3) ?x8342) (- (/ 15.0 2.0))))))
 (let (($x25192 (<= (+ L_3 (* (- 1.0) A_3) (* (- 1.0) S_0) (* 2.0 S_1)) (- 5.0))))
 (let ((?x312 (* (- 1.0) S_1)))
 (let ((?x4969 (* 3.0 S_2)))
 (let ((?x3502 (* (- 2.0) A_3)))
 (let ((?x1313 (* 2.0 L_3)))
 (let ((?x1085 (* (- 1.0) S_0)))
 (let ((?x1130 (* (- 3.0) A_3)))
 (let ((?x3276 (* 3.0 L_3)))
 (let (($x26326 (or $x74 (<= (+ (* (/ 1.0 2.0) L_3) (* (- (/ 1.0 2.0)) A_3) (* (/ 1.0 2.0) S_1)) (- (/ 15.0 2.0))))))
 (let (($x10023 (<= (+ L_0 S_4 (* (- 1.0) A_1) (* (/ 3.0 2.0) S_0) (* (- (/ 3.0 2.0)) S_3)) 0.0)))
 (let ((?x9280 (* (- (/ 1.0 2.0)) A_1)))
 (let ((?x848 (* (- (/ 1.0 2.0)) A_3)))
 (let ((?x9061 (* (/ 1.0 2.0) L_3)))
 (let ((?x239 (* (- 1.0) A_2)))
 (let ((?x267 (* (- 1.0) A_3)))
 (let ((?x624 (* (- 1.0) L_0)))
 (let ((?x977 (* 2.0 L_2)))
 (let (($x3388 (<= (+ (* (/ 3.0 2.0) L_2) ?x267 S_4 (* (- (/ 1.0 2.0)) A_2) (* (/ 1.0 2.0) S_0)) (- (/ 5.0 2.0)))))
 (let (($x64 (= L_2 L_1)))
 (let ((?x2428 (* (- 3.0) A_2)))
 (let ((?x3068 (* 2.0 A_1)))
 (let ((?x5968 (* (- 2.0) L_0)))
 (let ((?x3488 (* 3.0 L_2)))
 (let (($x1689 (or $x64 (<= (+ ?x977 S_4 (* (- 2.0) A_2) S_0) (- 10.0)) (<= (+ ?x3488 ?x5968 S_4 ?x3068 ?x2428) (- 15.0)))))
 (let (($x29302 (or (<= (+ L_2 ?x267 S_4 (* (/ 1.0 2.0) S_0) (* (- (/ 1.0 2.0)) S_3)) 0.0) (<= (+ ?x624 L_3 ?x267 S_4 A_1 (* (- 1.0) S_3)) 0.0))))
 (let (($x25136 (or $x74 (<= (+ ?x9061 L_0 ?x848 (* (- 1.0) A_0) (* (/ 3.0 2.0) S_1)) (- (/ 5.0 2.0))))))
 (let (($x4200 (or $x64 (<= (+ (* (/ 1.0 2.0) L_2) (* (- (/ 1.0 2.0)) A_2) (* (/ 1.0 2.0) S_0)) (- (/ 15.0 2.0))) (<= (+ L_2 ?x624 A_1 ?x239) (- 10.0)))))
 (let (($x4477 (<= (+ ?x3276 (* (- 3.0) L_2) ?x1130 (* 3.0 A_2) ?x312 S_3) 0.0)))
 (let (($x2947 (<= (+ ?x3276 (* (- 3.0) L_2) ?x1130 (* 3.0 A_2) ?x1085 S_2) 0.0)))
 (let ((?x4488 (* (- 2.0) A_2)))
 (let ((?x519 (* (- 1.0) S_4)))
 (let ((?x3525 (* 2.0 A_3)))
 (let ((?x5331 (* (- 2.0) L_3)))
 (let (($x1447 (<= (+ (* (- 3.0) L_3) ?x3488 (* 3.0 A_3) ?x519 ?x2428 S_0) 0.0)))
 (let ((?x2079 (* 4.0 A_2)))
 (let ((?x4361 (* (- 4.0) A_3)))
 (let ((?x5168 (* (- 4.0) L_2)))
 (let ((?x2146 (* 4.0 L_3)))
 (let (($x1757 (<= (+ A_1 ?x624 (* (- 1.0) S_2)) 0.0)))
 (let ((?x1309 (* 2.0 A_2)))
 (let ((?x1766 (* (- 1.0) A_0)))
 (let ((?x6273 (* (- 2.0) L_2)))
 (let (($x10083 (or $x64 (<= (+ L_2 (* (/ 1.0 3.0) S_4) ?x239 (* (/ 2.0 3.0) S_1)) (- 5.0)))))
 (let (($x1199 (<= (+ (* (/ 1.0 2.0) S_0) (* (- (/ 1.0 2.0)) S_3)) (- 5.0))))
 (let (($x7739 (= L_3 L_0)))
 (let (($x2355 (not (= L_0 L_2))))
 (let (($x27594 (or $x74 (<= (+ ?x1313 ?x6273 ?x3502 (* (- 1.0) A_1) ?x1309 L_0 S_3) 0.0))))
 (let (($x37600 (or $x74 (<= (+ ?x1313 ?x6273 ?x3502 ?x1309 (* (- 1.0) S_2) S_3) 0.0))))
 (let (($x2265 (<= (+ L_3 (* (- 1.0) L_2) ?x267 (* (- 1.0) A_1) A_2 L_0 S_2) 0.0)))
 (let (($x54 (= L_1 L_0)))
 (let (($x36732 (or $x54 (<= (+ (* 2.0 L_1) ?x267 S_4 (* (- 1.0) A_1) S_0) (- 5.0)))))
 (let (($x29221 (or $x64 (<= (+ (* (- 2.0) L_1) ?x977 ?x3068 ?x4488 ?x1085 S_1) 0.0))))
 (let (($x9845 (<= (+ (* (- 2.0) L_1) ?x977 ?x3068 ?x4488 (* (- 1.0) S_2) S_3) 0.0)))
 (let (($x20371 (or $x1757 (<= (+ (* (/ 1.0 4.0) S_4) (* (/ 3.0 4.0) S_0) (* (- 1.0) S_2)) 0.0))))
 (let (($x5071 (= L_2 L_0)))
 (let (($x3589 (not (= L_0 L_1))))
 (let (($x9726 (<= (+ (* (- 2.0) L_1) ?x977 S_4 ?x3068 ?x4488 (* (- 1.0) S_3)) 0.0)))
 (let (($x29619 (or $x64 (>= (+ ?x6273 ?x1309 L_3 ?x267 L_0 (* (- 1.0) A_1)) 5.0) (<= (+ ?x5331 ?x3488 ?x3525 ?x2428 S_0) (- 5.0)))))
 (let (($x29186 (or $x64 (<= (+ ?x5331 ?x977 ?x3525 ?x4488 S_0 (* (- 1.0) S_3)) 0.0) (>= S_3 (+ ?x239 L_2 (* (- 1.0) L_3) A_3 ?x624 A_1)))))
 (let (($x1283 (not (= L_2 L_3))))
 (let (($x24592 (or $x1283 $x3589 $x5071 (<= (+ ?x3525 ?x4488 S_0 (* (- 1.0) S_3)) 0.0) (<= (+ ?x624 A_3 A_1 ?x239 (* (- 1.0) S_3)) 0.0))))
 (let ((?x4970 (* 5.0 A_2)))
 (let ((?x2151 (* (- 5.0) A_3)))
 (let ((?x3982 (* (- 5.0) L_2)))
 (let ((?x2410 (* 5.0 L_3)))
 (let ((?x285 (* (- 1.0) S_2)))
 (let ((?x2744 (* 3.0 A_2)))
 (let ((?x3516 (* (- 3.0) L_2)))
 (let (($x9879 (<= (+ (* (- 3.0) L_1) ?x3488 (* 3.0 A_1) ?x2428 ?x1085 S_2) 0.0)))
 (let (($x13608 (<= (+ (* (- 3.0) L_0) ?x3488 (* 3.0 A_1) ?x2428 ?x1085 S_2) 0.0)))
 (let (($x6132 (<= (+ (* 3.0 L_1) ?x3516 ?x519 (* (- 3.0) A_1) ?x2744 S_0) 0.0)))
 (let (($x37531 (or $x74 (<= (+ ?x3276 ?x3516 ?x1130 S_4 (* (- 1.0) A_1) ?x2744 L_0) 0.0))))
 (let (($x8175 (>= S_4 (+ A_3 (* (- 1.0) L_1)))))
 (let (($x781 (not (= L_1 L_2))))
 (let (($x26420 (or $x54 $x781 $x8175 (<= (+ ?x519 (* (- 3.0) A_1) ?x2744 S_0) 0.0))))
 (let (($x26421 (or $x54 $x2057 (<= (+ L_1 ?x519 (* (- 1.0) A_1) (* 2.0 S_2)) (- 5.0)))))
 (let (($x1544 (<= (+ L_1 (* (- 1.0) L_2) ?x519 (* (- 1.0) A_1) A_2 S_2) 0.0)))
 (let (($x14890 (or (<= (+ L_0 ?x519 (* (- 1.0) A_1) (* 2.0 S_2)) 0.0) $x2057)))
 (let ((?x8341 (* (- (/ 1.0 2.0)) L_1)))
 (let ((?x8365 (* (/ 1.0 2.0) A_3)))
 (let ((?x2578 (* (- (/ 1.0 2.0)) L_3)))
 (let ((?x13794 (+ ?x2578 L_2 ?x8365 ?x8342 ?x8341 ?x239)))
 (let (($x15823 (<= ?x13794 0.0)))
 (let ((?x525 (* (- 1.0) S_3)))
 (let ((?x7779 (* (- 2.0) A_1)))
 (let ((?x8335 (* 2.0 L_1)))
 (let (($x28442 (or $x64 (<= (+ (* (- 2.0) L_1) ?x977 ?x3068 ?x4488 S_2 ?x312) 0.0))))
 (let (($x27616 (or $x54 (<= (+ L_1 ?x267 S_4 (* (/ 1.0 2.0) S_0) (* (- (/ 1.0 2.0)) S_3)) 0.0))))
 (let (($x29159 (or $x74 (<= (+ (* (- 2.0) L_1) ?x1313 ?x3502 ?x3068 ?x1085 S_3) 0.0))))
 (let (($x26563 (or $x54 $x2057 (<= (+ (* (/ 1.0 2.0) L_1) ?x2578 ?x8365 ?x519 ?x9280 S_2) 0.0))))
 (let (($x27962 (or $x74 (<= (+ (* (- 2.0) L_1) ?x1313 ?x3502 S_4 ?x3068 ?x312) 0.0))))
 (let (($x727 (<= (+ (* (- (/ 3.0 2.0)) L_1) ?x9479 ?x2395 S_4 (* (/ 3.0 2.0) A_1) ?x285) 0.0)))
 (let (($x36793 (or $x54 (<= (+ (* (/ 3.0 2.0) L_1) ?x2578 ?x8365 (* (- (/ 3.0 2.0)) A_1) S_0) (- 5.0)))))
 (let (($x11082 (<= (+ (* 4.0 L_1) S_4 (* (- 4.0) A_1) (* 3.0 S_0)) (- 20.0))))
 (let (($x27979 (or $x74 (<= (+ (* (- 2.0) L_1) ?x1313 L_0 ?x3502 S_4 ?x3068 ?x1766) 0.0))))
 (let ((?x8372 (* (/ 5.0 2.0) A_1)))
 (let ((?x8373 (* (- (/ 5.0 2.0)) A_3)))
 (let ((?x8578 (* (/ 5.0 2.0) L_3)))
 (let ((?x6591 (* (- (/ 5.0 2.0)) L_1)))
 (let (($x1377 (<= (+ (* (- (/ 3.0 2.0)) L_1) ?x9479 ?x2395 (* (/ 3.0 2.0) A_1) ?x1085 S_2) 0.0)))
 (let (($x26613 (or $x54 $x74 (<= (+ (* (/ 1.0 2.0) L_1) ?x9061 ?x848 ?x9280 S_2) (- 5.0)))))
 (let (($x8413 (<= (+ (* (- (/ 3.0 2.0)) L_1) ?x9479 L_0 ?x2395 (* (/ 3.0 2.0) A_1) ?x1766 S_3) 0.0)))
 (let (($x4378 (<= (+ (* (- 3.0) L_1) ?x3488 L_0 (* 3.0 A_1) ?x1766 ?x2428 S_3) 0.0)))
 (let (($x9690 (<= (+ (* (- 3.0) L_1) ?x3488 (* 3.0 A_1) ?x2428 ?x312 S_3) 0.0)))
 (let (($x5088 (<= (+ L_1 (* (- 1.0) A_1) (* (/ 1.0 2.0) S_0) (* (/ 1.0 2.0) S_2)) (- 5.0))))
 (let (($x28040 (or $x64 (<= (+ (* (- 2.0) L_1) ?x977 L_0 ?x3068 ?x1766 ?x4488 S_2) 0.0))))
 (let (($x4449 (<= (+ (* (- (/ 3.0 2.0)) L_1) ?x9479 ?x2395 (* (/ 3.0 2.0) A_1) ?x312 S_3) 0.0)))
 (let (($x7548 (or $x2057 (<= (+ L_0 (* (- (/ 1.0 2.0)) S_4) ?x1766 (* (/ 3.0 2.0) S_1)) 0.0))))
 (let (($x8742 (or $x74 (<= (+ (* (- 1.0) L_1) L_3 ?x267 A_1 ?x285 S_3) 0.0))))
 (let (($x8656 (or $x74 (<= (+ (* (- 1.0) L_1) L_3 L_0 ?x267 A_1 ?x1766 S_2) 0.0))))
 (let (($x28890 (or $x54 (<= (+ (* (/ 1.0 2.0) L_1) ?x2578 ?x8365 ?x9280 S_0 ?x285) 0.0))))
 (let ((?x9183 (* (- (/ 3.0 2.0)) A_1)))
 (let ((?x241 (* (/ 3.0 2.0) A_3)))
 (let ((?x4998 (* (- (/ 3.0 2.0)) L_3)))
 (let ((?x8770 (* (/ 3.0 2.0) L_1)))
 (let (($x9227 (<= (+ L_1 (* (- 1.0) L_3) A_3 ?x519 (* (- 1.0) A_1) S_1) 0.0)))
 (let (($x27517 (or $x54 (<= (+ (* (/ 1.0 2.0) L_1) ?x2578 ?x8365 ?x9280 S_1 ?x525) 0.0))))
 (let (($x883 (not (<= L_1 L_0))))
 (let (($x29165 (or $x64 $x883 (<= (+ (* (- 1.0) L_3) ?x977 A_3 A_1 ?x4488 ?x624) 0.0))))
 (let (($x2353 (or $x64 (<= (+ (* (- 1.0) L_3) L_2 A_3 ?x519 ?x239 S_2) 0.0))))
 (let (($x26757 (or $x64 $x1757 (<= (+ (* (- 1.0) L_3) L_2 A_3 ?x239 S_0 ?x285) 0.0))))
 (let ((?x5351 (* (- 5.0) A_2)))
 (let ((?x9929 (* 5.0 A_1)))
 (let ((?x4469 (* 5.0 L_2)))
 (let ((?x9989 (* (- 5.0) L_1)))
 (let ((?x3533 (* (- 4.0) A_2)))
 (let ((?x7854 (* 4.0 A_1)))
 (let ((?x4745 (* 4.0 L_2)))
 (let ((?x7368 (* (- 4.0) L_1)))
 (let (($x27894 (or $x64 (<= (+ (* (- 1.0) L_1) ?x977 ?x267 S_4 A_1 ?x239) 0.0))))
 (let (($x7255 (<= (+ (* (- 3.0) L_1) ?x3488 S_4 (* 3.0 A_1) ?x2428 ?x285) 0.0)))
 (let (($x2191 (or $x64 (<= (+ (* (- 1.0) L_1) L_2 L_0 A_1 ?x1766 ?x239 S_1) 0.0))))
 (let (($x5851 (or $x74 (<= (+ (* (- 1.0) L_1) L_3 ?x267 A_1 S_2 ?x312) 0.0))))
 (let (($x7700 (<= (+ L_1 (* (- 1.0) L_2) (* (- 1.0) A_1) A_2 S_1 ?x525) 0.0)))
 (let (($x4294 (or $x74 (<= (+ (* (- 1.0) L_1) L_3 ?x267 S_4 A_1 ?x525) 0.0))))
 (let (($x4174 (or $x74 (<= (+ (* (- 1.0) L_1) L_3 ?x267 A_1 ?x1085 S_1) 0.0))))
 (let (($x7348 (<= (+ L_1 (* (- 1.0) L_2) (* (- 1.0) A_1) A_2 S_0 ?x285) 0.0)))
 (let (($x8415 (<= (+ L_1 (* (- 1.0) L_3) A_3 (* (- 1.0) A_1) S_0 ?x525) 0.0)))
 (let (($x875 (not (<= L_2 L_1))))
 (let (($x1023 (or $x64 $x875)))
 (let (($x4206 (or $x64 (<= (+ (* (- 1.0) L_3) L_2 A_3 ?x239 S_1 ?x525) 0.0))))
 (let (($x9056 (or $x74 (<= (+ L_3 (* (- 1.0) L_2) ?x267 ?x1766 A_2 L_0 S_1) 0.0))))
 (let ((?x517 (* (- 1.0) L_2)))
 (let ((?x518 (+ A_2 ?x517)))
 (let (($x626 (<= ?x518 S_4)))
 (let (($x124 (>= A_3 A_2)))
 (let (($x1585 (or $x74 (not (<= L_3 L_2)))))
 (let (($x1236 (or $x54 $x883)))
 (let (($x797 (not (<= ?x518 S_3))))
 (let (($x795 (<= (+ A_1 (* (- 1.0) L_1)) S_3)))
 (let (($x125 (>= A_4 A_3)))
 (let (($x122 (>= A_1 A_0)))
 (let (($x117 (>= S_3 S_2)))
 (let (($x114 (>= S_2 S_1)))
 (let (($x111 (>= S_1 S_0)))
 (let (($x36 (>= L_0 L0)))
 (let (($x1658 (<= S_4 (+ A_4 (* (- 1.0) L_3)))))
 (and $x1658 $x36 $x111 $x114 $x117 $x122 $x125 $x795 $x797 $x1236 $x1585 $x124 $x626 $x9056 $x4206 $x1023 (or $x54 $x8415) (or $x54 (<= (+ L_1 (* (- 1.0) A_1) S_1) (- 5.0))) (or $x54 $x7348) $x4174 (or $x64 (<= (+ ?x7368 ?x4745 S_4 ?x7854 ?x3533 ?x312) 0.0)) (or $x64 (<= (+ (* (- 1.0) L_1) L_2 A_1 ?x239) (- 5.0))) (or $x64 (<= (+ ?x7368 ?x4745 ?x7854 ?x3533 ?x1085 S_3) 0.0)) (or $x74 (<= (+ ?x1313 ?x6273 ?x3502 ?x1309 S_2 ?x312) 0.0)) $x4294 (or $x74 (<= (+ ?x8341 ?x9061 ?x848 ?x8342) (- 5.0))) (or $x54 $x7700) $x5851 $x2191 (or $x64 $x7255) $x27894 (or $x64 (<= (+ ?x7368 ?x4745 L_0 S_4 ?x7854 ?x1766 ?x3533) 0.0)) (or $x64 (<= (+ ?x9989 ?x4469 S_4 ?x9929 ?x5351 ?x1085) 0.0)) $x26757 $x2353 $x29165 (or (<= (+ (* (- (/ 2.0 3.0)) S_4) S_2 (* (- (/ 1.0 3.0)) S_1)) 0.0) $x2057) $x27517 (or $x54 $x9227) (or $x54 (<= (+ ?x8770 ?x4998 ?x241 ?x519 ?x9183 S_0) 0.0)) (or $x74 (<= (+ ?x8341 ?x9061 L_0 ?x848 ?x8342 ?x1766 S_1) 0.0)) $x28890 (or (<= (+ (* (- (/ 1.0 2.0)) S_4) (* (- (/ 1.0 2.0)) S_0) S_1) 0.0) $x2057) $x8656 $x8742 $x7548 (or $x74 $x4449) (or $x64 (<= (+ ?x977 ?x4488 ?x1085 (* 3.0 S_1)) (- 10.0))) (or $x2057 (<= (+ (* (- (/ 1.0 2.0)) S_4) (* (/ 1.0 2.0) S_1)) (- 5.0))) (or $x64 (<= (+ L_2 ?x239 S_2) (- 5.0))) $x28040 (or $x54 $x781 (<= (+ ?x519 ?x7779 ?x1309 S_1) 0.0) $x8175) (or $x54 $x5088) (or $x54 (<= (+ ?x8335 ?x517 ?x7779 A_2 S_0) (- 5.0))) (or $x54 $x2057 (<= (+ ?x8335 ?x6273 ?x519 ?x7779 ?x1309 S_1) 0.0)) (or $x54 $x781 (<= (+ ?x7779 ?x1309 S_0 ?x525) 0.0)) (or $x64 $x9690) (or $x74 (<= (+ ?x1313 ?x6273 ?x3502 S_4 ?x1309 ?x525) 0.0)) (or $x74 (<= (+ ?x1313 ?x6273 ?x3502 ?x1309 ?x1085 S_1) 0.0)) (or $x64 $x4378) (or $x74 $x8413) $x26613 (or $x74 $x1377) (or $x74 (<= (+ ?x6591 ?x8578 ?x8373 S_4 ?x8372 ?x1085) 0.0)) $x27979 (or $x54 $x11082) $x36793 (or $x74 (<= (+ ?x8341 ?x9479 ?x2395 S_4 ?x8342) (- 5.0))) (or $x74 $x727) $x27962 $x26563 $x29159 (or (<= (+ L_0 (* (- 2.0) S_4) ?x1766 ?x4969) 0.0) $x2057) $x27616 (or $x74 (<= (+ ?x3276 ?x3516 ?x1130 ?x1766 ?x2744 L_0 S_3) 0.0)) $x28442 (or (<= (+ ?x519 S_2) (- 5.0)) $x2057) (or $x54 (<= (+ ?x8335 ?x6273 ?x7779 ?x1309 S_0 ?x525) 0.0)) (or $x1757 (<= (+ (* 2.0 S_0) (* (- 3.0) S_2) S_3) 0.0)) (or $x54 $x74 (= ?x13794 0.0) (not $x15823)) (or $x64 $x15823) $x14890 (or $x54 $x1544 $x2057) $x26421 $x26420 $x37531 (or $x54 $x2057 $x6132) (or $x3589 $x5071 $x13608) (or $x64 $x9879) (or (<= (+ (* (- (/ 3.0 4.0)) S_4) (* (- (/ 1.0 4.0)) S_0) S_2) 0.0) $x2057) (or $x3589 $x5071 (<= (+ ?x5968 ?x3488 S_4 ?x3068 ?x2428) (- 5.0))) (or $x64 (<= (+ (* (- 2.0) L_1) ?x3488 S_4 ?x3068 ?x2428) (- 5.0))) (or $x74 (<= (+ ?x3276 ?x3516 ?x1130 S_4 ?x2744 ?x285) 0.0)) (or $x74 (<= (+ ?x2146 ?x5168 ?x4361 S_4 ?x1766 ?x2079 L_0) 0.0)) (or $x74 (<= (+ ?x2410 ?x3982 ?x2151 S_4 ?x4970 ?x1085) 0.0)) (or $x10023 (<= (+ ?x5968 S_4 ?x3068 (* (- 3.0) S_3)) 0.0)) $x24592 $x29186 $x29619 (or $x1757 (<= (+ S_0 ?x285) (- 5.0))) (or $x64 $x9726) (or $x3589 $x5071 (<= (+ ?x5968 ?x977 ?x3068 ?x4488 ?x1085 S_1) 0.0)) $x20371 (or $x64 $x9845) $x29221 $x36732 (or $x74 $x2265) (or $x64 (<= (+ ?x5331 ?x977 ?x3525 ?x519 ?x4488 S_1) 0.0)) (or $x64 (<= (+ L_2 L_0 ?x1766 ?x239 (* 2.0 S_1)) (- 5.0))) (or $x2355 $x7739 (<= (+ L_3 ?x624 ?x267 A_2) (- 5.0))) $x37600 $x27594 (or $x2355 $x7739 (<= (+ ?x1313 ?x624 ?x3502 ?x1766 ?x1309 S_2) 0.0)) (or $x54 (<= (+ L_1 (* (- 1.0) A_1) S_0) (- 10.0))) (or $x74 (<= (+ L_3 ?x517 ?x267 A_2) (- 5.0))) (or $x1199 (<= (+ ?x624 A_1 ?x525) (- 5.0))) (or $x64 (<= (+ L_2 ?x239 S_1) (- 10.0))) (or $x64 (<= (+ (* (- 1.0) L_3) ?x977 A_3 ?x4488 S_1) (- 5.0))) $x10083 (or $x74 (<= (+ ?x1313 ?x517 ?x3502 S_4 A_2) (- 5.0))) (or $x74 (<= (+ ?x1313 ?x6273 ?x3502 ?x1766 ?x1309 L_0 S_2) 0.0)) (or $x74 (<= (+ ?x2146 ?x5168 ?x4361 ?x2079 ?x1085 S_3) 0.0)) (or $x1757 (<= (+ L_2 ?x267 S_4 S_0 ?x285) 0.0)) (or $x74 (<= (+ ?x2146 ?x5168 ?x4361 S_4 ?x2079 ?x312) 0.0)) (or $x64 $x1447 (<= (+ ?x5331 ?x977 ?x3525 ?x519 A_1 ?x4488 ?x624) 0.0)) (or $x74 $x2947) (or $x74 $x4477) (or $x64 (<= (+ ?x977 ?x267 S_4 ?x239 S_1) (- 5.0))) (or $x74 (<= (+ L_3 ?x267 S_2) (- 10.0))) (or $x74 (<= (+ ?x1313 L_0 ?x3502 ?x1766 ?x4969) (- 10.0))) $x4200 $x25136 $x29302 $x1689 (or $x64 $x3388 (<= (+ ?x977 ?x624 ?x267 S_4 A_1 ?x239) (- 5.0))) (or $x74 (<= (+ ?x9061 (* (/ 1.0 2.0) L_0) ?x848 ?x9280 S_2) (- (/ 5.0 2.0)))) (or $x74 (<= (+ ?x9479 ?x2395 S_4 (* (/ 1.0 2.0) S_1)) (- (/ 15.0 2.0)))) (or (not $x10023) (<= (+ S_4 S_0 (* (- 2.0) S_3)) 0.0)) $x26326 (or $x74 (<= (+ ?x3276 ?x1130 ?x1085 (* 4.0 S_2)) (- 15.0))) (or $x74 (<= (+ ?x1313 ?x3502 S_4 S_2) (- 10.0))) (or $x74 (<= (+ ?x1313 ?x3502 ?x4969 ?x312) (- 10.0))) (or $x74 $x25192) $x26321 (or $x74 $x13124 (<= (+ ?x9479 ?x1642 ?x2395 S_4 ?x8342) (- (/ 15.0 2.0)))) $x25898 $x1727 $x37 $x1759 $x369 (<= (+ S_4 (* 2.0 S_1) (* (- 3.0) S_3)) 0.0) $x1060 (<= (+ ?x1085 (* 3.0 S_1) (* (- 2.0) S_3)) 0.0) (<= (+ L_2 ?x267 S_4 S_1 ?x525) 0.0))))))))))))))))))))))))))))))))))))))))))))))))))))))))))))))))))))))))))))))))))))))))))))))))))))))))))))))))))))))))))))))))))))))))))))))))))))))))))))))))))))))))))))))
(check-sat)
